(set-info :smt-lib-version 2.8)
(set-logic QF_EIA)
(set-info :source |
Generated by: Florian Frohn
Generator: LoAT
Application: proving lower bounds on the worst-case runtime of transition systems
Target solver: SwInE
Time limit: 1.0
Benchmarks generated by the verification tool LoAT to evaluate the SMT solver
SwInE. We extracted all benchmarks with exponentiation that were generated by
LoAT when analyzing the examples from the category LIA-Lin (linear CHCs with
linear integer arithmetic) of the CHC competitions 2022 and 2023, and when
analyzing the examples from the categories "Termination of Integer Transition
Systems" and "Complexity of Integer Transition Systems" of the Termination and
Complexity Competition 2024. From the entire set, we selected those where
* SwInE v0.1.0 or SwInE-Z3 v0.1.2 failed or needed more than 1 second, or
* SwInE-Z3 v0.1.2 failed without phasing, a technique to prevent SwInE from
  computing with huge constants (described here
  https://arxiv.org/abs/2502.04761)
If several selected benchmarks only differed in lines not containing
exponentiation, we kept only one of them. This benchmark is known to be
satisfiable with the slightly different semantics of exponentiation used by the
versions of SwInE mentioned above.
|)
(set-info :license "https://creativecommons.org/licenses/by/4.0/")
(set-info :category "industrial")
(set-info :status unknown)

(declare-fun i1 () Int)
(declare-fun it615 () Int)
(declare-fun i2 () Int)
(declare-fun it616 () Int)
(declare-fun i3 () Int)
(declare-fun it617 () Int)
(declare-fun it618 () Int)
(declare-fun i4 () Int)
(declare-fun i5 () Int)
(declare-fun it619 () Int)
(declare-fun i6 () Int)
(declare-fun it620 () Int)
(declare-fun it627 () Int)
(declare-fun it628 () Int)
(declare-fun it629 () Int)
(declare-fun it630 () Int)
(declare-fun it631 () Int)
(declare-fun it632 () Int)
(declare-fun it633 () Int)
(declare-fun it634 () Int)
(declare-fun it635 () Int)
(declare-fun it636 () Int)
(declare-fun it637 () Int)
(declare-fun it638 () Int)
(declare-fun it273 () Int)
(declare-fun it644 () Int)
(declare-fun it645 () Int)
(declare-fun it646 () Int)
(declare-fun it647 () Int)
(declare-fun it648 () Int)
(declare-fun it649 () Int)
(assert (= (+ i1 (- 1)) 0))
(assert (= (+ it615 (- 2)) 0))
(assert (= (+ it616 (* i2 (- 1)) (- 1)) 0))
(assert (= (+ it617 (* i3 (- 1))) 0))
(assert (= (+ (* i4 (- 1)) it618) 0))
(assert (= (+ it619 (* i5 (- 1))) 0))
(assert (= (+ it620 (* i6 (- 1))) 0))
(assert (and (= (+ it615 (- 2)) 0) (>= (+ it617 (- 3)) 0)))
(assert (= (+ it627 (- 5)) 0))
(assert (= (+ (* it616 (- 1)) it628 (- 2)) 0))
(assert (= (+ it629 (* it617 (- 1))) 0))
(assert (= it630 0))
(assert (= (+ (* it619 (- 1)) it631) 0))
(assert (= (+ it632 (* it620 (- 1))) 0))
(assert (and (>= (+ it629 (* it630 (- 1)) (- 2)) 0) (= (+ it627 (- 5)) 0)))
(assert (= (+ it633 (- 7)) 0))
(assert (= (+ it634 (* it628 (- 1)) (- 2)) 0))
(assert (= (+ (* it629 (- 1)) it635) 0))
(assert (= (+ (* it630 (- 1)) it636) 0))
(assert (= it637 0))
(assert (= (+ (* it632 (- 1)) it638) 0))
(assert (let ((a!1 (>= (+ (+ (* it637 (- 2)) it635 (* it636 (- 1))) (- 4)) 0))
      (a!2 (+ (* (** 2 it273) (+ 0 (- 2)))
              (* (** 2 (+ it273 (- 1))) (+ 0 it637) (+ 0 (- 2)))
              (+ 0 it635)
              (+ 0 (* it636 (- 1)))))
      (a!3 (>= (+ (+ (* it637 (- 2)) it635 (* it636 (- 1))) (- 3)) 0)))
  (and a!1
       (>= (+ (* it633 (- 1)) 7) 0)
       (>= (+ a!2 (+ 0 1)) (+ 0 0))
       (>= (+ it633 (- 7)) 0)
       (>= a!2 (+ 0 0))
       (>= (+ it273 (- 1)) 0)
       a!3)))
(assert (= (+ it644 (* it633 (- 1))) 0))
(assert (= (+ (* it273 (- 6)) it645 (* it634 (- 1))) 0))
(assert (= (+ (* it635 (- 1)) it646) 0))
(assert (= (+ it647 (* it636 (- 1))) 0))
(assert (let ((a!1 (+ (+ 0 it648)
              (* (** 2 it273) (+ 0 it637) (+ 0 (- 1)))
              (* (** 2 (+ it273 1)) (+ 0 (- 1)))
              (+ 0 2))))
  (= a!1 (+ 0 0))))
(assert (let ((a!1 (+ (* (** 2 it273) (+ 0 (- 2)))
              (+ 0 it649)
              (* (** 2 (+ it273 (- 1))) (+ 0 it637) (+ 0 (- 2)))
              (+ 0 2))))
  (= a!1 (+ 0 0))))
(assert (and (>= (+ it647 (* it648 2) (* it646 (- 1)) 2) 0) (= (+ it644 (- 7)) 0)))
(check-sat)
(exit)
